JulietBench/Juliet_Based_Patch_Bench/linux/CWE-189-Numeric-Errors/CVE_2013_2094_8176cced706b5e5d15887584150764894e94e02f/Resultsw_perf_event_destroy_Snippet_patch1EQ.smt2
; benchmark generated from python API
(set-info :status unknown)
(declare-fun R () (_ BitVec 32))
(declare-fun rdi () (_ BitVec 64))
(assert
 (let (($x165 (= (_ bv4294967294 32) R)))
 (let ((?x44 ((_ extract 31 0) rdi)))
 (let (($x42 (bvule ?x44 (_ bv1 32))))
 (let (($x208 (and $x42 $x165)))
 (let (($x163 (= (_ bv1 32) R)))
 (let (($x152 (bvugt ?x44 (_ bv1 32))))
 (let (($x166 (bvsge (_ bv8 32) ?x44)))
 (let (($x207 (and $x166 $x152 $x163)))
 (let (($x201 (bvslt (_ bv8 32) ?x44)))
 (let (($x206 (and $x201 $x152 $x165)))
 (let (($x209 (or $x206 $x207 $x208)))
 (let (($x15 (bvule rdi (_ bv1 64))))
 (let (($x159 (and $x15 $x165)))
 (let (($x39 (bvugt rdi (_ bv1 64))))
 (let (($x50 (bvule rdi (_ bv8 64))))
 (let (($x158 (and $x50 $x39 $x163)))
 (let (($x136 (bvugt rdi (_ bv8 64))))
 (let (($x162 (and $x136 $x39 $x165)))
 (let (($x156 (or $x162 $x158 $x159)))
 (and $x156 $x209)))))))))))))))))))))
(check-sat)
